p edge 85 765 69
e 48 54
e 48 45
e 48 85
e 48 53
e 48 52
e 48 18
e 48 29
e 48 27
e 48 61
e 48 70
e 48 41
e 48 59
e 48 44
e 48 33
e 48 6
e 48 25
e 48 82
e 48 68
e 54 2
e 54 32
e 54 5
e 54 63
e 54 58
e 54 62
e 54 41
e 54 9
e 54 31
e 54 61
e 54 79
e 54 12
e 54 40
e 54 60
e 54 69
e 54 53
e 54 34
e 56 67
e 56 22
e 56 33
e 56 25
e 56 50
e 56 45
e 56 70
e 56 79
e 56 65
e 56 7
e 56 60
e 56 69
e 56 29
e 56 51
e 56 43
e 56 5
e 56 38
e 56 41
e 67 81
e 67 18
e 67 10
e 67 32
e 67 62
e 67 43
e 67 46
e 67 84
e 67 30
e 67 44
e 67 33
e 67 9
e 67 39
e 67 50
e 67 4
e 67 45
e 67 77
e 37 63
e 37 30
e 37 85
e 37 44
e 37 22
e 37 57
e 37 43
e 37 28
e 37 20
e 37 80
e 37 47
e 37 74
e 37 18
e 37 10
e 37 40
e 37 5
e 37 8
e 37 82
e 63 29
e 63 70
e 63 79
e 63 10
e 63 43
e 63 5
e 63 16
e 63 46
e 63 30
e 63 77
e 63 44
e 63 36
e 63 85
e 63 71
e 63 28
e 63 80
e 19 27
e 19 15
e 19 12
e 19 2
e 19 62
e 19 30
e 19 25
e 19 34
e 19 18
e 19 85
e 19 80
e 19 66
e 19 61
e 19 70
e 19 60
e 19 55
e 19 41
e 19 50
e 27 3
e 27 6
e 27 72
e 27 81
e 27 17
e 27 71
e 27 66
e 27 34
e 27 26
e 27 80
e 27 18
e 27 75
e 27 70
e 27 2
e 27 55
e 27 5
e 68 78
e 68 29
e 68 59
e 68 21
e 68 62
e 68 51
e 68 8
e 68 3
e 68 22
e 68 6
e 68 14
e 68 47
e 68 58
e 68 9
e 68 20
e 68 70
e 68 7
e 78 41
e 78 24
e 78 43
e 78 33
e 78 66
e 78 47
e 78 31
e 78 60
e 78 61
e 78 23
e 78 15
e 78 17
e 78 84
e 78 34
e 78 26
e 78 49
e 78 11
e 18 59
e 18 76
e 18 26
e 18 35
e 18 38
e 18 24
e 18 79
e 18 15
e 18 47
e 18 65
e 18 31
e 18 16
e 18 64
e 59 41
e 59 81
e 59 13
e 59 52
e 59 36
e 59 47
e 59 22
e 59 23
e 59 70
e 59 79
e 59 60
e 59 50
e 59 40
e 59 45
e 59 57
e 16 40
e 16 26
e 16 7
e 16 2
e 16 81
e 16 49
e 16 35
e 16 53
e 16 39
e 16 52
e 16 29
e 16 38
e 16 6
e 16 75
e 16 79
e 16 60
e 40 29
e 40 81
e 40 10
e 40 49
e 40 76
e 40 53
e 40 52
e 40 5
e 40 84
e 40 74
e 40 69
e 40 7
e 40 64
e 40 4
e 60 74
e 60 41
e 60 33
e 60 17
e 60 42
e 60 26
e 60 71
e 60 32
e 60 5
e 60 46
e 60 75
e 60 84
e 74 75
e 74 84
e 74 79
e 74 36
e 74 58
e 74 20
e 74 23
e 74 4
e 74 15
e 74 77
e 74 29
e 74 21
e 74 24
e 74 35
e 74 38
e 29 62
e 29 5
e 29 84
e 29 65
e 29 83
e 29 42
e 29 51
e 29 3
e 29 50
e 29 6
e 29 17
e 9 10
e 9 85
e 9 66
e 9 84
e 9 52
e 9 79
e 9 47
e 9 65
e 9 28
e 9 64
e 9 23
e 9 4
e 9 81
e 9 26
e 9 21
e 10 64
e 10 73
e 10 82
e 10 1
e 10 20
e 10 2
e 10 71
e 10 52
e 10 70
e 10 42
e 10 14
e 10 36
e 10 83
e 64 49
e 64 30
e 64 13
e 64 43
e 64 33
e 64 28
e 64 50
e 64 22
e 64 23
e 64 53
e 64 1
e 64 12
e 64 62
e 64 73
e 73 21
e 73 32
e 73 24
e 73 35
e 73 28
e 73 11
e 73 75
e 73 30
e 73 41
e 73 23
e 73 25
e 73 1
e 73 15
e 73 82
e 73 26
e 73 7
e 82 70
e 82 24
e 82 13
e 82 52
e 82 35
e 82 8
e 82 76
e 82 79
e 82 44
e 82 25
e 82 36
e 82 28
e 82 69
e 82 53
e 22 47
e 22 65
e 22 69
e 22 11
e 22 3
e 22 31
e 22 45
e 22 72
e 22 81
e 22 53
e 22 39
e 22 71
e 22 57
e 47 14
e 47 65
e 47 20
e 47 50
e 47 15
e 47 77
e 47 33
e 47 49
e 47 76
e 47 66
e 47 3
e 49 13
e 49 43
e 49 8
e 49 77
e 49 76
e 49 41
e 49 80
e 49 17
e 49 39
e 49 15
e 49 83
e 49 45
e 49 69
e 41 46
e 41 11
e 41 30
e 41 3
e 41 72
e 41 23
e 41 62
e 41 71
e 41 26
e 65 36
e 65 31
e 65 20
e 65 12
e 65 1
e 65 34
e 65 2
e 65 21
e 65 79
e 65 69
e 65 35
e 65 3
e 7 76
e 7 85
e 7 30
e 7 52
e 7 80
e 7 6
e 7 61
e 7 51
e 7 28
e 7 46
e 7 50
e 7 45
e 7 77
e 76 70
e 76 32
e 76 51
e 76 62
e 76 57
e 76 8
e 76 17
e 76 66
e 76 69
e 76 31
e 76 50
e 76 42
e 75 14
e 75 55
e 75 66
e 75 58
e 75 69
e 75 15
e 75 72
e 75 45
e 75 26
e 75 84
e 75 21
e 75 3
e 75 71
e 85 20
e 85 12
e 85 2
e 85 4
e 85 21
e 85 13
e 85 43
e 85 33
e 85 35
e 85 46
e 85 28
e 85 55
e 34 39
e 34 57
e 34 38
e 34 80
e 34 84
e 34 61
e 34 70
e 34 42
e 34 3
e 34 6
e 34 17
e 34 28
e 34 20
e 39 13
e 39 50
e 39 35
e 39 8
e 39 11
e 39 14
e 39 36
e 39 77
e 39 72
e 39 58
e 39 20
e 39 31
e 39 4
e 84 66
e 84 12
e 84 1
e 84 80
e 84 4
e 84 24
e 84 13
e 84 57
e 84 44
e 45 43
e 45 6
e 45 66
e 45 31
e 45 20
e 45 23
e 45 15
e 45 4
e 45 77
e 45 71
e 3 42
e 3 55
e 3 23
e 3 12
e 3 72
e 3 26
e 3 11
e 3 15
e 3 5
e 42 36
e 42 25
e 42 12
e 42 1
e 42 70
e 42 23
e 42 32
e 42 21
e 42 77
e 42 72
e 42 58
e 42 57
e 26 44
e 26 13
e 26 38
e 26 32
e 26 12
e 26 50
e 26 81
e 26 58
e 44 61
e 44 70
e 44 55
e 44 50
e 44 38
e 44 72
e 44 33
e 44 6
e 44 25
e 44 14
e 44 15
e 57 12
e 57 2
e 57 51
e 57 13
e 57 35
e 57 30
e 57 52
e 57 5
e 57 25
e 57 83
e 57 4
e 61 6
e 61 36
e 61 31
e 61 23
e 61 69
e 61 52
e 61 72
e 61 81
e 61 38
e 61 30
e 61 66
e 23 38
e 23 33
e 23 51
e 23 77
e 23 72
e 23 66
e 23 52
e 38 77
e 38 21
e 38 62
e 38 11
e 38 71
e 38 80
e 38 14
e 38 66
e 38 52
e 70 71
e 70 80
e 70 31
e 70 24
e 70 11
e 81 51
e 81 43
e 81 14
e 81 83
e 81 28
e 81 20
e 81 50
e 81 80
e 81 15
e 15 43
e 15 51
e 15 5
e 15 32
e 15 72
e 15 35
e 43 62
e 43 13
e 43 8
e 43 79
e 43 36
e 43 25
e 43 46
e 14 79
e 14 69
e 14 46
e 14 2
e 14 4
e 14 53
e 14 30
e 14 5
e 14 8
e 14 71
e 8 31
e 8 12
e 8 58
e 8 53
e 8 21
e 8 1
e 8 33
e 8 51
e 8 46
e 8 5
e 31 80
e 31 17
e 31 4
e 31 35
e 31 2
e 31 24
e 31 33
e 6 83
e 6 4
e 6 51
e 6 28
e 6 46
e 6 36
e 6 62
e 6 71
e 30 46
e 30 55
e 30 36
e 30 62
e 30 80
e 30 66
e 30 4
e 46 72
e 46 53
e 46 4
e 46 21
e 46 24
e 46 51
e 46 35
e 1 66
e 1 79
e 1 28
e 1 4
e 1 17
e 1 77
e 1 12
e 1 25
e 1 2
e 1 11
e 1 20
e 55 66
e 55 79
e 55 83
e 55 36
e 55 25
e 55 50
e 55 12
e 55 53
e 55 13
e 55 24
e 55 5
e 69 33
e 69 79
e 69 28
e 69 21
e 69 72
e 69 24
e 69 13
e 66 83
e 66 32
e 66 71
e 79 58
e 79 21
e 79 13
e 11 36
e 11 17
e 11 12
e 11 2
e 11 20
e 11 24
e 11 80
e 11 83
e 11 51
e 21 58
e 21 25
e 21 52
e 21 32
e 21 2
e 32 35
e 32 25
e 32 33
e 32 12
e 32 83
e 32 2
e 32 50
e 32 36
e 24 77
e 24 53
e 24 25
e 24 83
e 24 5
e 24 17
e 33 83
e 33 62
e 33 5
e 33 80
e 36 25
e 36 28
e 36 52
e 83 25
e 83 77
e 83 53
e 83 62
e 83 51
e 83 35
e 53 13
e 53 25
e 53 17
e 53 20
e 53 72
e 28 80
e 28 62
e 28 5
e 28 52
e 80 2
e 80 77
e 20 13
e 20 72
e 20 58
e 20 35
e 13 58
e 13 71
e 13 4
e 4 71
e 4 58
e 25 2
e 2 51
e 2 17
e 17 52
e 17 51
e 17 50
e 17 77
e 17 58
e 52 58
e 52 71
e 35 5
e 35 58
e 35 50
e 12 71
e 12 72
e 12 58
e 51 58
e 51 50
e 62 77
e 62 72
e 62 71
e 77 72
